p edge 50 368
e 1 4
e 1 5
e 1 12
e 1 17
e 1 19
e 1 22
e 1 23
e 1 34
e 1 38
e 1 41
e 1 45
e 1 46
e 2 4
e 2 10
e 2 12
e 2 16
e 2 19
e 2 21
e 2 27
e 2 28
e 2 29
e 2 33
e 2 34
e 2 38
e 2 39
e 2 41
e 2 44
e 3 16
e 3 18
e 3 21
e 3 23
e 3 28
e 3 29
e 3 32
e 3 36
e 3 39
e 3 44
e 3 45
e 3 47
e 3 48
e 3 50
e 4 6
e 4 7
e 4 10
e 4 17
e 4 19
e 4 21
e 4 24
e 4 25
e 4 29
e 4 32
e 4 33
e 4 36
e 4 37
e 4 40
e 4 48
e 4 49
e 5 12
e 5 13
e 5 18
e 5 25
e 5 26
e 5 30
e 5 31
e 5 36
e 5 44
e 5 47
e 5 48
e 6 8
e 6 9
e 6 12
e 6 13
e 6 19
e 6 24
e 6 25
e 6 28
e 6 32
e 6 36
e 6 37
e 6 40
e 6 41
e 6 50
e 7 11
e 7 12
e 7 13
e 7 18
e 7 20
e 7 21
e 7 24
e 7 26
e 7 35
e 7 38
e 7 39
e 8 13
e 8 14
e 8 20
e 8 22
e 8 23
e 8 28
e 8 32
e 8 35
e 8 38
e 8 43
e 8 46
e 8 48
e 9 11
e 9 14
e 9 15
e 9 16
e 9 17
e 9 20
e 9 23
e 9 27
e 9 30
e 9 33
e 9 34
e 9 36
e 9 38
e 9 40
e 9 41
e 9 43
e 9 50
e 10 11
e 10 12
e 10 15
e 10 17
e 10 18
e 10 20
e 10 22
e 10 24
e 10 27
e 10 28
e 10 30
e 10 31
e 10 32
e 10 48
e 11 13
e 11 15
e 11 16
e 11 18
e 11 25
e 11 26
e 11 28
e 11 31
e 11 32
e 11 44
e 11 46
e 11 48
e 12 21
e 12 28
e 12 29
e 12 30
e 12 41
e 12 43
e 12 44
e 12 46
e 13 20
e 13 26
e 13 27
e 13 28
e 13 30
e 13 37
e 13 38
e 13 39
e 13 40
e 13 41
e 13 45
e 13 49
e 14 31
e 14 36
e 14 47
e 14 50
e 15 18
e 15 21
e 15 23
e 15 28
e 15 31
e 15 40
e 15 42
e 15 43
e 15 44
e 15 45
e 15 47
e 15 50
e 16 24
e 16 25
e 16 27
e 16 31
e 16 32
e 16 36
e 16 39
e 16 40
e 16 42
e 16 44
e 16 47
e 16 48
e 17 21
e 17 22
e 17 27
e 17 35
e 17 40
e 17 41
e 17 44
e 17 46
e 17 48
e 17 50
e 18 25
e 18 35
e 18 37
e 18 39
e 18 40
e 18 46
e 18 48
e 19 27
e 19 29
e 19 30
e 19 31
e 19 34
e 19 37
e 19 41
e 19 42
e 19 44
e 19 46
e 19 47
e 20 27
e 20 32
e 20 41
e 20 50
e 21 22
e 21 25
e 21 29
e 21 30
e 21 36
e 21 37
e 21 38
e 21 42
e 21 44
e 21 45
e 21 48
e 22 23
e 22 24
e 22 27
e 22 31
e 22 32
e 22 33
e 22 34
e 22 36
e 22 43
e 22 46
e 22 50
e 23 26
e 23 30
e 23 40
e 23 43
e 23 47
e 23 48
e 23 49
e 23 50
e 24 25
e 24 29
e 24 30
e 24 39
e 24 40
e 24 42
e 24 43
e 24 47
e 24 49
e 25 34
e 25 36
e 25 37
e 25 39
e 26 28
e 26 32
e 26 33
e 26 35
e 26 36
e 26 38
e 26 45
e 26 47
e 26 50
e 27 31
e 27 34
e 27 39
e 27 45
e 27 49
e 28 29
e 28 31
e 28 33
e 28 40
e 28 45
e 28 48
e 29 30
e 29 31
e 29 32
e 29 34
e 29 35
e 29 47
e 29 50
e 30 34
e 30 35
e 30 37
e 30 41
e 30 45
e 30 47
e 31 32
e 31 33
e 31 34
e 31 39
e 31 40
e 31 41
e 31 42
e 31 43
e 31 49
e 31 50
e 32 34
e 32 37
e 32 40
e 32 41
e 32 42
e 32 44
e 32 45
e 32 46
e 32 47
e 32 48
e 32 49
e 33 35
e 33 38
e 33 39
e 33 45
e 33 50
e 34 42
e 34 45
e 34 46
e 35 39
e 35 41
e 35 49
e 36 37
e 36 39
e 36 41
e 36 50
e 37 38
e 37 40
e 37 41
e 37 44
e 37 45
e 37 46
e 37 48
e 37 49
e 38 41
e 38 43
e 38 44
e 38 50
e 39 40
e 39 43
e 39 47
e 39 48
e 40 44
e 40 48
e 41 46
e 41 48
e 42 50
e 44 46
e 44 47
e 45 48
e 45 50
e 46 47
e 46 48
e 46 49
